p cnf 25 30
-14 13 -22 0
24 7 1 0
1 18 -4 0
-6 3 -4 0
3 10 -5 0
4 -20 -5 0
-11 24 -1 0
-8 10 21 0
4 23 8 0
8 1 -9 0
8 -18 16 0
18 -9 -10 0
-14 -10 20 0
12 20 6 0
-3 15 -13 0
7 -16 -25 0
-7 -13 24 0
22 -15 18 0
18 -2 -21 0
2 20 8 0
16 13 -7 0
-22 6 -10 0
-25 24 -7 0
11 6 -2 0
-14 -12 23 0
5 -14 -8 0
-25 -22 3 0
-3 21 -2 0
22 10 4 0
-18 -23 -25 0
